100
100
70
70
69
69
69
69
68
68
68
67
67
67
66
66
65
65
64
63
62
62
60
60
59
59
59
58
57
56
56
55
54
54
53
52
50
49
49
46
46
46
46
46
45
44
44
44
44
41
41
41
40
39
37
37
36
34
34
33
32
31
29
29
28
27
27
27
27
26
24
24
23
23
22
22
22
22
20
20
19
19
18
17
17
17
16
16
15
15
15
14
14
13
13
13
12
10
10
10
10
10
